\ LP format - for model browsing. Use MPS format to capture full model detail.
Maximize
  217 var(0) + 414 var(1) + 53 var(2) + 98 var(3) + 174 var(4) + 25 var(5)
   + 209 var(6) + 378 var(7) + 251 var(8) + 68 var(9) + 49 var(10)
   + 295 var(11) + 154 var(12) + 208 var(13) + 96 var(14) + 114 var(15)
   + 83 var(16) + 169 var(17) + 210 var(18) + 48 var(19) + 64 var(20)
   + 222 var(21) + 134 var(22) + 79 var(23) + 100 var(24)
Subject To
 constr(0): var(0) + var(1) + var(2) + var(3) + var(4) = 1
 constr(1): var(5) + var(6) + var(7) + var(8) + var(9) = 1
 constr(2): var(10) + var(11) + var(12) + var(13) + var(14) = 1
 constr(3): var(15) + var(16) + var(17) + var(18) + var(19) = 1
 constr(4): var(20) + var(21) + var(22) + var(23) + var(24) = 1
 constr(5): var(0) + var(5) + var(10) + var(15) + var(20) = 1
 constr(6): var(1) + var(6) + var(11) + var(16) + var(21) = 1
 constr(7): var(2) + var(7) + var(12) + var(17) + var(22) = 1
 constr(8): var(3) + var(8) + var(13) + var(18) + var(23) = 1
 constr(9): var(4) + var(9) + var(14) + var(19) + var(24) = 1
Bounds
Binaries
 var(0) var(1) var(2) var(3) var(4) var(5) var(6) var(7) var(8) var(9)
 var(10) var(11) var(12) var(13) var(14) var(15) var(16) var(17) var(18)
 var(19) var(20) var(21) var(22) var(23) var(24)
End
